
Gurobi 6.5.2 (win64) logging started 08/12/16 04:26:18

Optimize a model with 100166 rows, 73075 columns and 370727 nonzeros
Coefficient statistics:
  Matrix range    [1e+00, 1e+00]
  Objective range [1e+01, 4e+03]
  Bounds range    [1e+00, 1e+00]
  RHS range       [1e+00, 1e+00]
Found heuristic solution: objective 0
Variable types: 0 continuous, 73075 integer (73075 binary)

Root relaxation: objective -1.870743e+06, 17884 iterations, 0.41 seconds

    Nodes    |    Current Node    |     Objective Bounds      |     Work
 Expl Unexpl |  Obj  Depth IntInf | Incumbent    BestBd   Gap | It/Node Time

     0     0 -1870742.8    0  720    0.00000 -1870742.8      -     -    1s
H    0     0                    -1740630.102 -1870742.8  7.48%     -    2s
H    0     0                    -1756008.537 -1870742.8  6.53%     -    2s
H    0     0                    -1768515.343 -1870742.8  5.78%     -    3s
     0     0 -1862896.7    0  247 -1768515.3 -1862896.7  5.34%     -    3s
H    0     0                    -1835743.009 -1862896.7  1.48%     -    3s
H    0     0                    -1851443.403 -1862896.7  0.62%     -    4s
     0     0 -1861820.1    0   58 -1851443.4 -1861820.1  0.56%     -    4s
H    0     0                    -1859532.502 -1861820.1  0.12%     -    4s
H    0     0                    -1861415.076 -1861820.1  0.02%     -    4s
H    0     0                    -1861428.076 -1861820.1  0.02%     -    4s
     0     0 -1861603.7    0   17 -1861428.1 -1861603.7  0.01%     -    5s

Cutting planes:
  Gomory: 73
  Implied bound: 12
  Clique: 58
  Zero half: 4

Explored 0 nodes (24369 simplex iterations) in 5.11 seconds
Thread count was 12 (of 12 available processors)

Optimal solution found (tolerance 1.00e-04)
Best objective -1.861428075615e+06, best bound -1.861603705601e+06, gap 0.0094%
Obj: -1861428.0756152999